sat
(
  (define-fun PriceProv1 () Int
    480)
  (define-fun ProcProv3 () Int
    7199)
  (define-fun MemProv4 () Int
    3150)
  (define-fun C1_VM2 () Int
    0)
  (define-fun PriceProv2 () Int
    480)
  (define-fun ProcProv4 () Int
    1800)
  (define-fun MemProv1 () Int
    6750)
  (define-fun C3_VM4 () Int
    0)
  (define-fun VM1Type () Int
    10)
  (define-fun C2_VM2 () Int
    1)
  (define-fun ProcProv2 () Int
    3600)
  (define-fun C5_VM2 () Int
    0)
  (define-fun StorageProv1 () Int
    141000)
  (define-fun VM4Type () Int
    7)
  (define-fun ProcProv1 () Int
    3600)
  (define-fun VM5Type () Int
    0)
  (define-fun C3_VM3 () Int
    0)
  (define-fun MemProv5 () Int
    3151)
  (define-fun C5_VM5 () Int
    0)
  (define-fun C4_VM3 () Int
    0)
  (define-fun PriceProv3 () Int
    0)
  (define-fun VM2Type () Int
    10)
  (define-fun StorageProv3 () Int
    41999)
  (define-fun StorageProv4 () Int
    69000)
  (define-fun C5_VM4 () Int
    1)
  (define-fun C3_VM1 () Int
    0)
  (define-fun StorageProv5 () Int
    807001)
  (define-fun C2_VM5 () Int
    0)
  (define-fun C4_VM2 () Int
    1)
  (define-fun StorageProv2 () Int
    141000)
  (define-fun C1_VM5 () Int
    0)
  (define-fun C2_VM4 () Int
    0)
  (define-fun C5_VM3 () Int
    0)
  (define-fun PriceProv5 () Int
    0)
  (define-fun VM3Type () Int
    0)
  (define-fun C3_VM5 () Int
    0)
  (define-fun MemProv3 () Int
    28351)
  (define-fun C2_VM3 () Int
    0)
  (define-fun PriceProv4 () Int
    240)
  (define-fun MemProv2 () Int
    6750)
  (define-fun C1_VM4 () Int
    0)
  (define-fun ProcProv5 () Int
    3601)
  (define-fun C4_VM4 () Int
    0)
  (define-fun C3_VM2 () Int
    1)
  (define-fun C4_VM5 () Int
    0)
  (define-fun C1_VM3 () Int
    0)
  (define-fun C4_VM1 () Int
    0)
  (define-fun C2_VM1 () Int
    0)
  (define-fun C5_VM1 () Int
    0)
  (define-fun C1_VM1 () Int
    1)
)
(objectives
 ((+ 0 PriceProv1 PriceProv2 PriceProv3 PriceProv4 PriceProv5) 1200)
)
(:added-eqs                   53980
 :arith-eq-adapter            6806
 :arith-bound-propagations-lp 25097
 :arith-conflicts             141
 :arith-diseq                 72241
 :arith-fixed-eqs             256
 :arith-lower                 111616
 :arith-make-feasible         11093
 :arith-max-columns           107
 :arith-max-rows              17
 :arith-upper                 48592
 :binary-propagations         340482
 :conflicts                   2458
 :decisions                   23073
 :del-clause                  8736
 :final-checks                21
 :max-memory                  40.38
 :memory                      40.38
 :minimized-lits              12971
 :mk-bool-var                 14395
 :mk-clause                   9634
 :mk-clause-binary            2417
 :num-allocs                  7508870
 :num-checks                  19
 :pb-conflicts                806
 :pb-predicates               254
 :pb-propagations             1199
 :pb-resolves                 803
 :propagations                539513
 :restarts                    21
 :rlimit-count                3124640
 :solve-eqs-elim-vars         2
 :solve-eqs-steps             16
 :time                        0.17
 :total-time                  0.18)
